 header                                 
   1.00000000000000     
    11.0000000000000000    0.0000000000000000    0.0000000000000000
     0.0000000000000000   12.0000000000000000    0.0000000000000000
     0.0000000000000000    0.0000000000000000   13.0000000000000000
   N    H 
     1     2
Direct
  0.5000000005783178  0.5006196218110591  0.4287103253604218
  0.5000000015736948  0.4930162466541576  0.5081801100306744
  0.5000000015040280  0.5863641210069259  0.4185669311084898
 
  0.00000000E+00  0.00000000E+00  0.00000000E+00
  0.00000000E+00  0.00000000E+00  0.00000000E+00
  0.00000000E+00  0.00000000E+00  0.00000000E+00
