 header                                 
   1.00000000000000     
    11.0000000000000000    0.0000000000000000    0.0000000000000000
     0.0000000000000000   12.0000000000000000    0.0000000000000000
     0.0000000000000000    0.0000000000000000   13.0000000000000000
   N    H 
     1     3
Direct
  0.5039844745711772  0.5061140878837245  0.4327671817459213
  0.4917768699103137  0.4938770889643649  0.5098396440210001
  0.4905086753552781  0.5891119640408831  0.4197528703542066
  0.5937299850379506  0.4908968450738846  0.4182501258783203
 
  0.00000000E+00  0.00000000E+00  0.00000000E+00
  0.00000000E+00  0.00000000E+00  0.00000000E+00
  0.00000000E+00  0.00000000E+00  0.00000000E+00
  0.00000000E+00  0.00000000E+00  0.00000000E+00
