 header                                 
   1.00000000000000     
    11.0000000000000000    0.0000000000000000    0.0000000000000000
     0.0000000000000000   12.0000000000000000    0.0000000000000000
     0.0000000000000000    0.0000000000000000   13.0000000000000000
   H 
     1
Direct
  0.5000000012186803  0.4999999964907147  0.4251524554998625
 
  0.00000000E+00  0.00000000E+00  0.00000000E+00
