 header                                 
   1.00000000000000     
    11.0000000000000000    0.0000000000000000    0.0000000000000000
     0.0000000000000000   12.0000000000000000    0.0000000000000000
     0.0000000000000000    0.0000000000000000   13.0000000000000000
   N 
     2
Direct
  0.5000000012916749  0.4999999960861707  0.4211814165104777
  0.4999999987083252  0.5000000039138291  0.5068185834895196
 
  0.00000000E+00  0.00000000E+00  0.00000000E+00
  0.00000000E+00  0.00000000E+00  0.00000000E+00
