 header                                 
   1.00000000000000     
    11.0000000000000000    0.0000000000000000    0.0000000000000000
     0.0000000000000000   12.0000000000000000    0.0000000000000000
     0.0000000000000000    0.0000000000000000   13.0000000000000000
   N 
     1
Direct
  0.5000000007871384  0.4999999882314128  0.4251076533670889
 
  0.00000000E+00  0.00000000E+00  0.00000000E+00
